WARNING: for repeatability, setting FPU to use double precision
============================[ Problem Statistics ]=============================
|                                                                             |
|  Number of variables:           329                                         |
|  Number of clauses:            9018                                         |
|  Parse time:                   0.00 s                                       |
|                                                                             |
c ============================[ Search Statistics ]==============================
c | Conflicts |          ORIGINAL         |          LEARNT          | Progress |
c |           |    Vars  Clauses Literals |    Limit  Clauses Lit/Cl |          |
c ===============================================================================
c Switched to VSIDS.
c Switched to LRB.
c Switched to VSIDS.
c Switched to LRB.
c Switched to VSIDS.
c Switched to LRB.
c Switched to VSIDS.
c Switched to LRB.
c Switched to VSIDS.
c Switched to LRB.
c Switched to VSIDS.
c Switched to LRB.
c Switched to VSIDS.
c Switched to LRB.
c Switched to VSIDS.
c Switched to LRB.
c Switched to VSIDS.
c Switched to LRB.
c Switched to VSIDS.
c Switched to LRB.
c Switched to VSIDS.
c Switched to LRB.
c Switched to VSIDS.
c Switched to LRB.
c Switched to VSIDS.
c Switched to LRB.
c Switched to VSIDS.
c Switched to LRB.
CAREFUL: the definition is falsified in conflict 20029847 at DL 25 (has happened 1 times)
c Switched to VSIDS.
c Switched to LRB.
c Switched to VSIDS.
c Switched to LRB.
c Switched to VSIDS.
c Switched to LRB.
c Switched to VSIDS.
c ===============================================================================
restarts                  : 69902
conflicts                 : 30111343       (8612 /sec)
decisions                 : 47807663       (0.00 % random) (13673 /sec)
propagations              : 9027415060     (2581843 /sec)
conflict literals         : 909201761      (41.11 % deleted)

conflicts w/ DIP found    : 14674329       (48.73 % of conflicts)
conflicts w/ dangerous DIP: 3              (0.00 % of conflicts)
conflicts w/ DIP-learning : 1438576        (4.78 % of conflicts)
decisions on ext vars     : 155445         (0.33 % of decisions)
total ext vars            : 26037       
tried delete ext vars     : 10917       
deleted ext vars          : 10917       
max ext vars              : 15120       

Memory used               : 310.00 MB
CPU time                  : 3496.5 s
DIP computation time      : 150.73 s (4.31 % of total time)
ER_sel time               : 28.8912 s
ER_add time               : 0.081838 s
ER_delC time              : 0 s
ER_delV time              : 0.257779 s
ER_sub time               : 34.0348 s
ER_stat time              : 0 s

INDETERMINATE
